(set-option :produce-models true)
(set-logic QF_UF)
(declare-fun p23() Bool)
(declare-fun p67() Bool)
(declare-fun p51() Bool)
(declare-fun p4() Bool)
(declare-fun p62() Bool)
(declare-fun p106() Bool)
(declare-fun p52() Bool)
(declare-fun p50() Bool)
(declare-fun p54() Bool)
(declare-fun p55() Bool)
(declare-fun p89() Bool)
(declare-fun p8() Bool)
(declare-fun p36() Bool)
(declare-fun p9() Bool)
(declare-fun p115() Bool)
(declare-fun p68() Bool)
(declare-fun p102() Bool)
(declare-fun p104() Bool)
(declare-fun p33() Bool)
(declare-fun p108() Bool)
(declare-fun p29() Bool)
(declare-fun p82() Bool)
(declare-fun p60() Bool)
(declare-fun p18() Bool)
(declare-fun p2() Bool)
(declare-fun p46() Bool)
(declare-fun p14() Bool)
(declare-fun p31() Bool)
(declare-fun p0() Bool)
(declare-fun p45() Bool)
(declare-fun p20() Bool)
(declare-fun p1() Bool)
(declare-fun p65() Bool)
(declare-fun p35() Bool)
(declare-fun p117() Bool)
(declare-fun p70() Bool)
(declare-fun p101() Bool)
(declare-fun p85() Bool)
(declare-fun p41() Bool)
(declare-fun p118() Bool)
(declare-fun p109() Bool)
(declare-fun p30() Bool)
(declare-fun p113() Bool)
(declare-fun p110() Bool)
(declare-fun p71() Bool)
(declare-fun p84() Bool)
(declare-fun p10() Bool)
(declare-fun p53() Bool)
(declare-fun p47() Bool)
(declare-fun p38() Bool)
(declare-fun p40() Bool)
(declare-fun p105() Bool)
(declare-fun p7() Bool)
(declare-fun p112() Bool)
(declare-fun p42() Bool)
(declare-fun p79() Bool)
(declare-fun p97() Bool)
(declare-fun p66() Bool)
(declare-fun p44() Bool)
(declare-fun p56() Bool)
(declare-fun p32() Bool)
(declare-fun p91() Bool)
(declare-fun p37() Bool)
(declare-fun p93() Bool)
(declare-fun p34() Bool)
(declare-fun p90() Bool)
(declare-fun p81() Bool)
(declare-fun p103() Bool)
(declare-fun p92() Bool)
(declare-fun p116() Bool)
(declare-fun p99() Bool)
(declare-fun p72() Bool)
(declare-fun p76() Bool)
(declare-fun p59() Bool)
(declare-fun p43() Bool)
(declare-fun p100() Bool)
(declare-fun p73() Bool)
(declare-fun p39() Bool)
(declare-fun p107() Bool)
(declare-fun p111() Bool)
(declare-fun p61() Bool)
(declare-fun p75() Bool)
(declare-fun p98() Bool)
(declare-fun p22() Bool)
(declare-fun p11() Bool)
(declare-fun p63() Bool)
(declare-fun p57() Bool)
(declare-fun p95() Bool)
(declare-fun p48() Bool)
(declare-fun p87() Bool)
(declare-fun p27() Bool)
(declare-fun p58() Bool)
(declare-fun p19() Bool)
(declare-fun p15() Bool)
(declare-fun p24() Bool)
(declare-fun p64() Bool)
(declare-fun p96() Bool)
(declare-fun p74() Bool)
(declare-fun p78() Bool)
(declare-fun p6() Bool)
(declare-fun p80() Bool)
(declare-fun p13() Bool)
(declare-fun p21() Bool)
(declare-fun p5() Bool)
(declare-fun p17() Bool)
(declare-fun p3() Bool)
(declare-fun p28() Bool)
(declare-fun p114() Bool)
(declare-fun p49() Bool)
(declare-fun p83() Bool)
(declare-fun p94() Bool)
(declare-fun p26() Bool)
(declare-fun p69() Bool)
(declare-fun p88() Bool)
(declare-fun p77() Bool)
(declare-fun p25() Bool)
(declare-fun p119() Bool)
(declare-fun p16() Bool)
(declare-fun p12() Bool)
(declare-fun p86() Bool)
(assert
(and (or p23 p67 p51) (or p4 p62 (not p106)) (or p52 (not p50) p54) (or (not p55) p89 (not p8)) (or (not p36) (not p9) (not p115)) (or p68 p102 p104) (or (not p23) (not p33) (not p106)) (or (not p54) p108 (not p4)) (or p29 p82 p60) (or (not p18) (not p2) p36) (or p4 (not p46) (not p4)) (or (not p14) (not p31) p0) (or (not p45) (not p20) (not p1)) (or (not p65) p35 p117) (or p70 (not p101) p55) (or p33 p85 (not p41)) (or p118 p109 p30) (or (not p4) (not p113) p110) (or (not p71) p84 p62) (or (not p102) p10 (not p82)) (or (not p53) p47 (not p33)) (or (not p53) p38 p40) (or (not p105) (not p7) (not p105)) (or p85 (not p102) (not p112)) (or (not p42) (not p79) p97) (or (not p66) (not p44) (not p101)) (or p56 (not p32) p91) (or p37 p93 (not p34)) (or (not p90) p33 (not p0)) (or (not p81) (not p103) p89) (or p54 (not p92) p116) (or (not p2) (not p112) (not p85)) (or (not p89) (not p99) (not p72)) (or p76 p118 p59) (or (not p43) (not p100) p73) (or p34 (not p118) p118) (or p46 p116 p32) (or p39 (not p107) (not p56)) (or p111 p110 p61) (or p23 (not p75) p98) (or p76 (not p111) p81) (or p116 (not p10) p8) (or p22 (not p72) (not p82)) (or (not p7) p11 p63) (or p50 p8 p105) (or p57 (not p95) (not p97)) (or (not p48) p73 p89) (or (not p31) (not p87) p46) (or p8 p27 p58) (or p57 p104 (not p32)) (or p19 p107 (not p99)) (or (not p15) (not p45) (not p24)) (or (not p55) (not p116) (not p0)) (or p79 p1 (not p64)) (or (not p39) (not p57) (not p91)) (or p95 (not p29) (not p29)) (or p75 p96 (not p22)) (or p41 (not p55) p74) (or (not p101) p48 (not p57)) (or (not p63) p78 (not p52)) (or p111 p6 (not p60)) (or (not p80) (not p61) p76) (or p75 p13 p91) (or (not p21) p73 (not p5)) (or p70 p17 p102) (or p100 (not p58) (not p101)) (or p31 (not p3) (not p107)) (or p112 (not p85) (not p43)) (or (not p105) p118 p28) (or p22 p28 (not p70)) (or p54 p31 p72) (or (not p113) p58 p93) (or (not p50) (not p46) p74) (or p55 p70 p100) (or (not p104) p114 (not p35)) (or p49 (not p0) (not p44)) (or p27 p23 p99) (or p37 (not p101) (not p89)) (or p83 p114 p8) (or p70 (not p62) p95) (or (not p67) p4 (not p94)) (or p45 (not p9) (not p90)) (or (not p26) (not p13) p69) (or (not p24) (not p56) p42) (or p55 p103 p29) (or p11 (not p103) p50) (or (not p81) p115 (not p51)) (or (not p88) p57 (not p118)) (or p33 (not p71) (not p118)) (or (not p38) (not p35) (not p53)) (or p23 p31 (not p23)) (or (not p33) (not p112) (not p34)) (or p15 p10 p7) (or p39 (not p59) p48) (or (not p87) p74 (not p61)) (or p110 (not p38) p79) (or p2 p57 p51) (or (not p34) (not p23) (not p77)) (or (not p76) (not p20) p72) (or p3 (not p84) p66) (or (not p9) (not p83) p68) (or (not p61) p53 (not p100)) (or p95 (not p14) p41) (or p41 p18 p42) (or (not p26) p17 p84) (or (not p37) p89 p53) (or p15 (not p1) (not p91)) (or p104 (not p28) (not p34)) (or p29 p116 p59) (or p72 (not p106) (not p57)) (or p52 (not p93) p79) (or p113 (not p15) p9) (or (not p60) p109 p14) (or p44 (not p96) p71) (or (not p49) (not p71) (not p25)) (or (not p61) (not p81) p61) (or (not p114) (not p90) p26) (or p37 p10 p60) (or p28 (not p59) p79) (or p69 p21 p46) (or (not p38) (not p105) p93) (or p93 p45 p99) (or (not p52) (not p1) (not p19)) (or (not p29) (not p85) (not p119)) (or (not p53) (not p27) (not p72)) (or p69 p38 (not p91)) (or (not p23) p38 p52) (or (not p26) (not p26) p88) (or p26 (not p102) p114) (or (not p1) (not p48) p7) (or p110 (not p66) p22) (or (not p112) p110 (not p47)) (or p98 (not p24) (not p115)) (or (not p25) (not p81) (not p8)) (or (not p71) p105 (not p99)) (or p25 p98 p109) (or (not p24) p100 (not p42)) (or (not p19) p72 (not p22)) (or p85 p8 (not p53)) (or p32 p82 p21) (or p18 (not p36) (not p94)) (or p94 p98 (not p93)) (or (not p15) (not p110) (not p10)) (or p45 p21 p40) (or p94 p90 (not p38)) (or p57 (not p90) (not p84)) (or (not p50) (not p84) p75) (or (not p1) (not p114) (not p108)) (or p76 p67 p22) (or (not p10) p79 (not p8)) (or (not p20) p19 (not p106)) (or p49 (not p118) (not p67)) (or p113 p1 p22) (or (not p89) (not p111) p63) (or (not p55) p16 p47) (or p95 (not p50) p71) (or p60 (not p12) p48) (or (not p68) p50 (not p112)) (or p103 p39 (not p54)) (or (not p60) (not p65) (not p108)) (or (not p73) p61 (not p6)) (or p45 p82 p110) (or p10 (not p113) (not p15)) (or p75 p46 (not p23)) (or (not p72) p104 p117) (or (not p30) (not p22) p44) (or p106 p26 p58) (or p31 p83 (not p2)) (or (not p41) p68 p18) (or (not p14) (not p6) p28) (or (not p80) (not p68) p6) (or p13 p46 (not p2)) (or (not p39) (not p65) (not p111)) (or p109 (not p97) p10) (or p71 (not p89) p85) (or (not p92) (not p37) p63) (or p53 p62 (not p42)) (or (not p2) (not p42) p20) (or (not p11) (not p73) p70) (or p33 (not p9) (not p75)) (or p57 (not p5) (not p66)) (or p45 (not p58) p28) (or p37 p40 (not p56)) (or (not p32) p80 p79) (or p43 p92 p39) (or p104 (not p111) p29) (or p60 (not p35) p95) (or p61 p92 (not p79)) (or (not p74) (not p49) (not p77)) (or p40 (not p42) (not p74)) (or p59 (not p103) (not p54)) (or p25 p32 (not p86)) (or (not p28) (not p58) p4) (or p90 (not p119) (not p111)) (or (not p26) p54 (not p47)) (or (not p87) p114 p44) (or (not p31) (not p23) p95) (or p7 p86 (not p22)) (or (not p67) (not p55) (not p26)) (or p15 (not p60) p117) (or p96 p101 (not p111)) (or (not p72) (not p87) (not p58)) (or p3 (not p56) (not p81)) (or (not p90) p108 (not p75)) (or p8 p33 p107) (or p14 p82 (not p66)) (or p1 p10 p36) (or (not p68) p74 (not p4)) (or (not p54) p38 p6) (or p74 p44 p100) (or (not p14) p41 p103) (or p89 (not p41) p22) (or p21 (not p4) p101) (or (not p3) (not p70) p83) (or p98 (not p94) p45) (or p30 (not p62) p15) (or p10 (not p54) (not p3)) (or (not p77) (not p104) p75) (or p8 (not p11) (not p16)) (or (not p73) (not p5) p98) (or (not p41) p78 p82) (or p110 (not p107) (not p79)) (or p30 (not p51) (not p111)) (or p67 p19 p115) (or (not p46) (not p32) (not p33)) (or (not p11) (not p77) p5) (or (not p36) p84 p12) (or (not p66) p117 (not p116)) (or (not p59) (not p1) p12) (or p81 (not p118) p105) (or p47 (not p26) (not p55)) (or (not p35) p47 p25) (or (not p2) p83 p36) (or p55 (not p119) (not p101)) (or (not p10) (not p16) p27) (or (not p13) (not p71) p62) (or p24 p94 (not p93)) (or p0 (not p2) p26) (or p96 p101 (not p52)) (or p105 p113 (not p17)) (or (not p52) (not p110) p22) (or p93 (not p13) (not p64)) (or p1 p72 (not p90)) (or (not p29) p70 p10) (or p59 p68 p64) (or p112 (not p72) p72) (or (not p8) p34 (not p54)) (or (not p48) p5 p79) (or (not p26) p98 (not p109)) (or (not p76) (not p79) (not p50)) (or p109 (not p78) p86) (or p8 p42 p28) (or (not p55) (not p87) p68) (or p42 p33 (not p26)) (or p21 p96 (not p88)) (or (not p104) p37 (not p48)) (or p99 (not p116) (not p63)) (or p78 p31 p69) (or p3 (not p95) p112) (or p86 p43 (not p107)) (or p7 (not p2) (not p73)) (or p39 p89 p32) (or p114 (not p96) p62) (or (not p81) p88 (not p43)) (or p10 (not p105) p15) (or (not p94) (not p75) p9) (or p49 (not p105) (not p80)) (or p88 (not p21) (not p79)) (or p53 p70 p81) (or p44 (not p101) (not p102)) (or p74 p5 p56) (or p93 p62 (not p59)) (or (not p108) (not p81) (not p101)) (or p7 (not p72) (not p3)) (or (not p79) (not p51) p98) (or (not p16) p43 p98) (or p41 p89 (not p33)) (or p119 p4 p105) (or p10 (not p102) p93) (or (not p97) (not p0) (not p50)) (or (not p13) (not p93) p75) (or p106 p22 p81) (or (not p49) p16 p101) (or p110 (not p112) p26) (or p30 (not p73) p118) (or (not p119) p16 p7) (or p100 (not p32) (not p10)) (or (not p83) p75 p118) (or (not p24) (not p34) (not p75)) (or (not p86) (not p10) p74) (or p115 p20 p39) (or (not p80) p47 (not p92)) (or p65 (not p110) (not p1)) (or p30 (not p37) p105) (or p47 (not p77) (not p26)) (or p76 p20 (not p31)) (or p53 (not p36) (not p42)) (or (not p80) (not p70) p25) (or p36 (not p86) (not p99)) (or (not p119) (not p73) p64) (or p18 p44 p60) (or (not p25) (not p23) p59) (or p72 (not p8) p20) (or p38 p11 p110) (or (not p17) p68 p57) (or (not p20) (not p105) p65) (or (not p20) p5 p44) (or (not p0) p30 p34) (or p113 (not p119) (not p27)) (or p92 (not p110) (not p88)) (or (not p77) p111 p48) (or p77 p19 p93) (or p50 p115 p95) (or (not p9) (not p43) (not p41)) (or (not p71) (not p12) (not p80)) (or (not p119) p57 p30) (or p91 (not p30) (not p69)) (or (not p25) (not p68) (not p66)) (or (not p110) p88 p66) (or (not p49) (not p72) p60) (or p48 p69 p81) (or p71 (not p96) p33) (or p24 p111 (not p39)) (or p60 p71 p82) (or (not p107) (not p82) p73) (or p65 p92 (not p7)) (or p75 p53 p70) (or (not p65) (not p118) (not p17)) (or (not p70) (not p103) (not p3)) (or p107 p28 (not p81)) (or p111 (not p99) (not p89)) (or (not p40) p47 (not p63)) (or (not p82) p53 p9) (or p8 p115 (not p11)) (or (not p1) (not p104) (not p75)) (or (not p47) (not p71) p29) (or p55 (not p98) p92) (or p56 p36 (not p63)) (or p69 (not p99) p20) (or (not p55) (not p18) p87) (or (not p81) (not p43) (not p115)) (or (not p69) p18 p11) (or (not p53) p112 (not p18)) (or (not p81) p28 (not p93)) (or p50 p47 p6) (or (not p14) (not p106) (not p41)) (or p75 p94 (not p84)) (or p86 p67 (not p46)) (or (not p106) p60 p44) (or p85 (not p80) p94) (or (not p88) p36 p37) (or p45 (not p72) p116) (or p112 p26 (not p36)) (or p61 p103 (not p101)) (or (not p87) p18 p18) (or p93 (not p78) (not p4)) (or (not p75) p97 (not p4)) (or (not p45) (not p91) (not p45)) (or p34 (not p59) (not p96)) (or p90 (not p99) (not p4)) (or (not p113) p72 (not p12)) (or p41 (not p9) (not p39)) (or p15 (not p5) (not p22)) (or (not p29) (not p3) p111) (or p19 (not p11) (not p53)) (or (not p56) (not p95) p91) (or (not p87) p27 p28) (or p21 p36 p85) (or (not p35) (not p9) p67) (or (not p63) p118 p81) (or p52 (not p95) (not p85)) (or (not p98) p75 p36) (or (not p43) (not p72) p116) (or p35 p107 p37) (or p118 p71 (not p31)) (or (not p16) (not p92) (not p27)) (or (not p19) (not p6) (not p92)) (or (not p85) (not p85) p74) (or p1 p3 (not p29)) (or (not p80) (not p56) (not p38)) (or (not p55) (not p110) (not p31)) (or (not p55) p82 p65) (or (not p13) (not p7) (not p102)) (or (not p3) p17 p36) (or (not p43) (not p108) (not p50)) (or (not p92) p59 p35) (or (not p18) (not p108) p116) (or p24 (not p64) p43) (or p83 (not p78) (not p118)) (or (not p62) p30 (not p81)) (or (not p119) p77 (not p76)) (or (not p117) (not p103) (not p77)) (or p35 p1 p106) (or (not p16) p114 (not p44)) (or (not p55) (not p40) (not p69)) (or (not p115) p97 p45) (or p31 (not p99) p59) (or (not p59) p53 p0) (or (not p79) (not p91) (not p56)) (or (not p34) p62 p50) (or p80 p2 p107) (or (not p117) (not p66) p106) (or p23 (not p88) (not p76)) (or (not p101) p109 (not p29)) (or p100 p42 (not p19)) (or p68 p30 p58) (or (not p3) (not p7) p51) (or p6 (not p42) p54) (or (not p105) p4 p118) (or (not p82) (not p106) (not p99)) (or (not p93) (not p46) (not p14)) (or p33 p6 (not p16)) (or (not p38) p24 (not p59)) (or (not p98) (not p28) (not p86)) (or (not p66) (not p7) (not p8)) (or (not p111) p45 p38) (or (not p53) (not p1) (not p118)) (or p40 p110 p46) (or (not p111) p110 p58) (or p90 p17 (not p77)) (or (not p104) p39 (not p116)) (or (not p79) (not p0) p38) (or (not p39) p70 (not p36)) (or p46 (not p77) (not p113)) (or (not p15) (not p86) p81) (or p83 p42 (not p6)) (or (not p26) p15 (not p67)) (or (not p62) (not p45) (not p4)) (or (not p99) (not p74) (not p32)) (or (not p21) p74 p44) (or p116 p85 p68) (or (not p60) p114 (not p112)) (or p27 p84 (not p110)) (or p22 (not p60) p119) (or p24 p64 (not p37)) (or (not p43) (not p84) p110) (or p8 (not p85) p3) (or p52 (not p111) p30) (or p73 p75 (not p107)) (or p119 p16 (not p56)) (or p47 (not p84) p13) (or p97 (not p36) (not p6)) (or p84 p75 (not p20)) (or (not p21) (not p63) p26) (or (not p74) p94 p91) (or p83 (not p34) (not p65)) (or (not p67) p39 (not p65)) (or (not p6) p40 (not p54)) (or p75 (not p42) (not p51)) (or (not p62) (not p6) p107) (or p49 p110 (not p0)) (or (not p12) p61 p5) (or p30 (not p112) (not p89)) (or (not p52) p95 p112) (or (not p53) p65 (not p93)) (or (not p111) p17 p41) (or p105 p92 p117) (or p94 (not p5) (not p49)) (or (not p110) (not p86) p84) (or p66 p59 p56) (or (not p68) p43 (not p54)) (or p43 (not p17) p69) (or (not p84) p85 p5) (or (not p70) p4 p27) (or p7 (not p9) p9) (or (not p110) p8 (not p75)) (or (not p77) (not p51) (not p99)) (or (not p81) (not p12) (not p44)) (or p67 p37 p40) (or (not p46) (not p50) (not p36)) (or (not p99) p113 p113) (or p0 p74 p103) (or p113 (not p43) (not p56)) (or p55 p16 p7) (or (not p96) p103 (not p82)) (or (not p64) p73 (not p47)) (or p17 (not p85) p68) (or (not p53) (not p34) (not p102)) (or (not p83) p42 (not p5)) (or p26 (not p55) p74) (or (not p48) p86 p31) (or p104 (not p62) p38) (or p52 p7 p90) (or (not p101) (not p8) p79) (or (not p97) p51 (not p41)) (or p50 p85 p91) (or (not p119) p76 (not p108)) (or (not p6) p72 (not p4)) (or (not p14) p119 p98) (or (not p76) p104 p72) (or (not p7) (not p89) (not p83)) (or p74 (not p112) (not p13)) (or (not p28) (not p2) (not p116)) (or (not p73) (not p96) p85) (or (not p56) (not p23) p62) (or p5 p39 p46) (or (not p0) p38 (not p40)) (or p25 p35 p75) (or (not p81) (not p37) p11) (or p67 (not p81) (not p98)) (or (not p33) p86 p103) (or (not p23) p26 p34) (or (not p14) p35 p83) (or (not p44) p37 p109) (or (not p91) (not p53) (not p10)) (or (not p46) (not p88) (not p27)) (or (not p119) (not p78) p117) (or (not p93) (not p31) (not p116)) (or (not p29) p31 p81) (or p5 p78 p73) (or (not p64) (not p110) p110) (or (not p74) (not p77) p84) (or p33 (not p63) (not p92)) (or (not p91) p114 (not p58)) (or p84 (not p54) (not p11)) (or (not p39) (not p22) p40) (or (not p29) (not p109) (not p49)) (or (not p29) (not p87) p27) (or (not p87) p9 (not p108)) (or (not p38) p6 p28) (or p58 p18 p19) (or p27 p93 p72) (or (not p119) (not p93) p93) (or p20 (not p6) p15) (or p32 (not p83) p59) (or p74 p81 p2) (or (not p111) p55 p83) (or (not p28) p32 (not p15)) (or (not p3) p79 (not p30)) (or (not p52) (not p80) (not p114)) (or p1 p59 (not p64)) (or p117 p63 p28) (or (not p6) (not p13) p99) (or p34 (not p21) p83) (or (not p54) (not p38) p12) (or (not p7) (not p100) p70) (or (not p106) p45 (not p119)) (or p51 (not p98) (not p118)) (or p20 (not p82) p105) (or (not p105) (not p36) (not p67)) (or (not p20) (not p18) p70) (or (not p30) (not p27) (not p54)) (or (not p75) p45 p17) (or (not p23) p47 p89) (or (not p65) p106 p16) (or (not p115) p95 (not p67)) (or p93 (not p22) p96) (or (not p96) p75 (not p59)) (or (not p118) p51 p5) (or p24 (not p56) p11) (or p1 (not p77) (not p41)) (or (not p115) (not p110) p7) (or (not p55) (not p75) (not p62)) (or p102 p3 p36) (or (not p107) (not p46) (not p14)) (or p82 (not p42) p59) (or (not p108) p74 (not p74)) (or (not p50) p105 p86) (or p3 (not p9) p16) (or (not p119) p26 (not p40)) (or (not p3) p31 (not p25)) (or p49 (not p35) p85) (or (not p23) p105 (not p64)) (or p35 p98 p87) (or p30 p53 (not p88)) (or p4 (not p5) (not p67)) (or p70 p7 p40) (or (not p22) p92 (not p80)) (or (not p34) p72 p98) (or p75 (not p42) (not p35)) (or (not p91) (not p97) (not p2)) (or (not p88) p94 (not p58)) (or p104 p25 (not p56)) (or p69 p45 (not p97)) (or (not p99) p29 (not p11)) (or p47 p112 (not p37)) (or p20 p74 (not p13)) (or (not p12) (not p8) (not p118)) (or p12 p76 (not p68)) (or (not p2) p59 p44) (or (not p40) p104 (not p40)) (or p103 p62 p113) (or p26 (not p84) (not p87)) (or p74 (not p101) (not p30)) (or p12 (not p43) (not p6)) (or p97 p107 p81) (or p88 (not p71) p73) (or (not p16) (not p80) p36) (or (not p115) (not p84) p42) (or p86 p76 p39) (or (not p73) (not p17) (not p41)) (or (not p74) p34 p101) (or p109 p98 p108) (or p101 p9 (not p7)) (or p9 p2 p92) (or (not p16) (not p94) (not p110)) (or (not p13) (not p10) p27) (or (not p32) p79 p62) (or p19 (not p80) (not p27)))
)
(check-sat)
(get-model)
